%%%mzn-stat: initTime=0.001838711
%%%mzn-stat: objective=679
%%%mzn-stat: nodes=1112
%%%mzn-stat: restarts=0
%%%mzn-stat: peakDepth=76
%%%mzn-stat: solveTime=0.067187784
%%%mzn-stat: variables=206
%%%mzn-stat: propagators=126
%%%mzn-stat: failures=981
%%%mzn-stat: propagations=49128
%%%mzn-stat: nogoods=981
%%%mzn-stat: AverageConflictSize=6.243628950050969
%%%mzn-stat: NumUnitNogoodsLearned=587
%%%mzn-stat: AverageLearnedNogoodLength=4.942915392456677
%%%mzn-stat: AverageBacktrackAmount=0
%%%mzn-stat: AverageLbd=2.489296636085627
%%%mzn-stat-end
maxleg = 679;
succ = array1d(1..20,[8, 19, 1, 12, 20, 13, 9, 2, 4, 3, 16, 15, 18, 17, 14, 7, 10, 5, 6, 11]);
% time elapsed: 0.35 s
----------
==========
% time elapsed: 0.35 s
%%%mzn-stat: initTime=0.001838711
%%%mzn-stat: objective=679
%%%mzn-stat: nodes=1112
%%%mzn-stat: restarts=0
%%%mzn-stat: peakDepth=76
%%%mzn-stat: solveTime=0.067199413
%%%mzn-stat: variables=206
%%%mzn-stat: propagators=126
%%%mzn-stat: failures=981
%%%mzn-stat: propagations=49128
%%%mzn-stat: nogoods=981
%%%mzn-stat: AverageConflictSize=6.243628950050969
%%%mzn-stat: NumUnitNogoodsLearned=587
%%%mzn-stat: AverageLearnedNogoodLength=4.942915392456677
%%%mzn-stat: AverageBacktrackAmount=0
%%%mzn-stat: AverageLbd=2.489296636085627
%%%mzn-stat-end
